DIMENSION: 561
1	678	543
2	733	546
3	748	536
4	772	549
5	804	560
6	804	587
7	816	611
8	789	604
9	769	601
10	743	577
11	776	573
12	830	556
13	882	556
14	927	556
15	927	591
16	882	604
17	907	622
18	842	615
19	860	591
20	825	591
21	890	584
22	880	477
23	900	429
24	927	433
25	930	474
26	910	505
27	932	518
28	913	532
29	893	529
30	870	501
31	910	467
32	767	488
33	806	460
34	830	457
35	825	484
36	817	522
37	801	522
38	762	525
39	726	518
40	748	501
41	791	494
42	703	505
43	716	491
44	733	484
45	776	460
46	753	464
47	723	467
48	704	467
49	709	419
50	724	439
51	756	433
52	774	433
53	764	409
54	746	419
55	726	412
56	726	384
57	693	374
58	809	402
59	821	426
60	839	422
61	854	409
62	869	398
63	923	398
64	912	360
65	889	378
66	852	381
67	834	364
68	827	395
69	792	398
70	776	391
71	751	395
72	709	381
73	728	360
74	884	347
75	857	354
76	817	367
77	842	343
78	809	347
